c 1 indexed_2
c 2 tiff
c 3 indexed_4
c 4 indexed_1
c 5 dpi400
c 6 dpi200
c 7 dpi100
c 8 dpi50
c 9 indexed_8
c 10 high_quality
c 11 full_hd_resolution
c 12 low_quality
c 13 anyScriptOrigin
c 14 sd_resolution
c 15 dpi
c 16 validate
c 17 jpg
c 18 mime-type
c 19 Root
c 20 indexed
c 21 png
c 22 format
c 23 4k_resolution
c 24 onload
c 25 pdf
p cnf 25 56
19 0
15 -8 0
15 -7 0
15 -6 0
15 -5 0
8 7 6 5 -15 0
-8 -7 0
-8 -6 0
-8 -5 0
-7 -6 0
-7 -5 0
-6 -5 0
17 -12 0
17 -10 0
12 10 -17 0
-12 -10 0
18 -21 0
18 -17 0
18 -2 0
18 -25 0
21 17 2 25 -18 0
-21 -17 0
-21 -2 0
-21 -25 0
-17 -2 0
-17 -25 0
-2 -25 0
19 -18 0
19 -20 0
19 -15 0
19 -16 0
19 -24 0
19 -13 0
19 -22 0
18 -19 0
20 -19 0
15 -19 0
22 -19 0
20 -4 0
20 -1 0
20 -3 0
20 -9 0
4 1 3 9 -20 0
-4 -1 0
-4 -3 0
-4 -9 0
-1 -3 0
-1 -9 0
-3 -9 0
22 -14 0
22 -11 0
22 -23 0
14 11 23 -22 0
-14 -11 0
-14 -23 0
-11 -23 0
